db/data/832630284118291442126166305622259832113.z3.out
sat
-------------------
18.804323621
